<number of tasks>
250

<cycle time>
1000

<order strength>
0.596


<task times>
1 167
2 174
3 122
4 208
5 111
6 42
7 336
8 55
9 46
10 175
11 53
12 89
13 41
14 93
15 216
16 91
17 145
18 181
19 195
20 115
21 201
22 201
23 139
24 69
25 54
26 156
27 36
28 124
29 93
30 148
31 238
32 167
33 275
34 161
35 38
36 211
37 188
38 130
39 61
40 76
41 79
42 91
43 130
44 205
45 298
46 80
47 136
48 152
49 164
50 180
51 107
52 113
53 48
54 22
55 143
56 103
57 138
58 112
59 362
60 219
61 131
62 191
63 158
64 21
65 76
66 126
67 185
68 103
69 122
70 261
71 53
72 97
73 300
74 224
75 98
76 229
77 148
78 58
79 113
80 129
81 117
82 137
83 137
84 79
85 55
86 172
87 232
88 191
89 100
90 105
91 123
92 83
93 116
94 222
95 189
96 153
97 147
98 119
99 198
100 130
101 100
102 115
103 49
104 119
105 195
106 274
107 158
108 290
109 56
110 53
111 229
112 217
113 192
114 125
115 31
116 51
117 191
118 183
119 302
120 45
121 216
122 76
123 126
124 307
125 234
126 79
127 162
128 84
129 181
130 97
131 190
132 85
133 98
134 227
135 187
136 48
137 92
138 110
139 139
140 226
141 268
142 75
143 289
144 228
145 263
146 48
147 68
148 72
149 102
150 164
151 138
152 268
153 196
154 205
155 244
156 41
157 103
158 36
159 187
160 354
161 142
162 225
163 232
164 97
165 153
166 249
167 212
168 142
169 161
170 30
171 81
172 323
173 189
174 343
175 156
176 95
177 22
178 165
179 83
180 197
181 97
182 185
183 149
184 139
185 233
186 75
187 52
188 215
189 20
190 41
191 65
192 23
193 47
194 44
195 33
196 128
197 105
198 100
199 140
200 60
201 175
202 110
203 191
204 42
205 71
206 82
207 206
208 103
209 205
210 57
211 193
212 328
213 30
214 99
215 212
216 185
217 282
218 158
219 74
220 55
221 114
222 122
223 55
224 165
225 99
226 156
227 137
228 72
229 82
230 46
231 142
232 30
233 88
234 170
235 75
236 233
237 326
238 49
239 100
240 104
241 202
242 163
243 25
244 134
245 292
246 80
247 175
248 284
249 160
250 83

<precedence relations>
1,129
2,30
3,30
4,50
5,146
6,19
7,13
7,14
7,15
7,16
7,69
8,16
8,82
9,11
9,12
9,14
9,17
10,12
10,18
10,63
11,129
12,129
13,30
14,30
15,30
16,30
17,50
18,50
19,20
19,21
19,22
19,23
19,24
19,25
19,26
19,27
19,28
20,30
21,50
22,50
23,50
24,50
25,194
26,76
27,163
28,29
28,31
28,32
28,33
28,34
28,35
28,36
28,37
29,129
30,38
30,39
30,40
30,41
30,42
30,43
30,44
30,45
30,46
30,47
30,48
30,49
30,52
31,50
32,50
33,50
34,194
35,230
36,230
37,51
37,52
37,63
37,91
37,112
37,121
38,129
39,129
40,146
41,53
42,53
42,54
42,60
42,74
42,99
43,54
43,65
44,53
44,54
44,62
45,96
46,54
46,103
46,121
47,61
47,63
47,67
47,83
48,104
48,124
49,54
49,81
49,83
49,91
49,100
50,55
50,56
50,57
50,58
50,59
50,64
51,127
52,66
52,98
52,104
53,129
54,129
55,211
56,230
57,65
57,66
57,127
58,70
59,66
59,67
59,68
59,69
59,71
59,77
60,194
61,146
62,76
63,127
64,91
65,129
66,178
67,76
68,76
69,127
70,72
70,73
70,75
70,77
70,78
70,79
70,96
71,72
71,73
71,74
71,75
72,129
73,105
74,230
75,230
76,84
76,85
76,86
76,87
76,88
76,89
76,90
76,91
77,80
77,82
77,97
77,98
77,101
78,83
78,93
79,81
79,92
79,112
80,129
81,146
82,178
83,178
84,127
85,93
85,95
86,165
87,92
87,109
88,92
89,123
89,138
90,92
90,93
91,92
91,94
91,99
92,230
93,97
93,98
93,99
93,100
93,101
93,102
94,95
94,96
94,103
95,129
96,194
97,194
98,105
99,105
100,105
101,163
102,103
102,104
102,106
102,107
102,108
102,109
102,110
102,111
102,130
103,129
104,129
105,113
105,114
105,115
105,116
105,117
105,118
105,119
105,120
105,122
106,146
107,146
108,146
109,127
110,112
110,121
111,121
112,129
113,127
114,127
114,146
114,147
114,149
115,125
115,128
116,131
116,164
116,180
117,123
117,128
118,209
119,124
120,124
120,126
120,210
121,127
122,178
123,129
124,211
125,194
126,231
127,132
127,133
127,134
127,135
127,136
127,138
128,129
128,130
128,131
128,136
128,137
128,145
129,139
129,140
129,141
129,142
129,143
130,211
131,194
133,163
134,144
134,145
135,177
135,191
135,234
136,163
137,144
137,148
138,153
138,165
139,146
140,146
141,231
142,152
142,166
142,180
142,195
143,147
143,149
143,150
143,151
144,178
145,148
146,154
146,155
146,156
146,157
146,158
146,159
146,160
146,161
146,162
147,231
148,163
149,163
150,153
150,164
151,163
151,165
152,153
153,211
154,178
155,233
156,247
157,167
157,177
158,205
159,165
160,165
160,166
162,165
163,168
163,169
163,170
163,171
163,172
163,173
163,174
163,175
163,176
163,177
164,208
165,194
166,230
167,178
168,180
168,181
168,194
169,178
172,179
173,195
173,216
173,230
174,193
175,213
175,234
176,194
176,202
178,182
178,183
178,184
178,185
178,186
178,187
179,205
180,232
180,248
180,250
181,188
184,202
184,206
185,190
185,193
186,189
186,192
187,189
187,191
188,213
189,194
190,194
191,230
192,195
192,196
193,212
193,215
193,217
194,197
194,198
194,199
194,200
194,201
195,202
195,214
195,215
196,247
197,203
200,210
201,204
201,207
201,217
202,233
203,204
203,205
203,206
203,207
203,208
203,209
203,210
204,211
205,230
206,230
207,231
208,231
210,212
210,213
210,214
210,215
210,216
210,217
211,218
211,219
211,220
211,221
211,222
211,223
211,224
211,225
211,226
211,227
211,228
211,229
212,230
213,230
214,231
215,234
216,232
216,250
217,233
223,246
226,250
229,250
230,235
230,236
230,237
230,238
230,239
230,240
231,241
231,242
231,243
231,244
231,245
234,250
235,246
242,247
243,249
244,246
246,247
247,248
247,249
247,250

<end>
